(set-info :smt-lib-version 2.6)
(set-logic QF_DT)
(set-info :source |
Generated by: Federico Mora
Generated on: 2023-07-20
Generator: z3 Python bindings via UCLID5 Python API
Application: Blocksworld Automated Reasoning Problems.
Target solvers: Algaroba, cvc5, Z3, Princess
Publications: Shah, Mora and Seshia. An Eager Satisfiability Modulo Theories Solver for Algebraic Datatypes. AAAI ’24 |)
(set-info :license "https://creativecommons.org/licenses/by/4.0/")
(set-info :category "industrial")
(set-info :status unsat) 
(declare-datatypes ((Enum_A_B_C_D_E_F 0)) (((A) (B) (C) (D) (E) (F))))
(declare-datatypes ((Tower 0)) (((stack (top Enum_A_B_C_D_E_F) (rest Tower)) (empty))))
(declare-datatypes ((Record_left_center_right 0)) (((Record_left_center_right (left Tower) (center Tower) (right Tower)))))
(declare-datatypes ((Enum_left-to-center_left-to-right_center-to-left_center-to-right_right-to-left_right-to-center 0)) (((left-to-center) (left-to-right) (center-to-left) (center-to-right) (right-to-left) (right-to-center))))
(declare-fun s () Record_left_center_right)
(declare-fun s_tmp () Record_left_center_right)
(declare-fun c () Enum_left-to-center_left-to-right_center-to-left_center-to-right_right-to-left_right-to-center)
(declare-fun c_tmp () Enum_left-to-center_left-to-right_center-to-left_center-to-right_right-to-left_right-to-center)
(declare-fun s_tmp_ () Record_left_center_right)
(declare-fun s_tmp__ () Record_left_center_right)
(declare-fun s_tmp___ () Record_left_center_right)
(declare-fun c!0 () Enum_left-to-center_left-to-right_center-to-left_center-to-right_right-to-left_right-to-center)
(declare-fun c_tmp____ () Enum_left-to-center_left-to-right_center-to-left_center-to-right_right-to-left_right-to-center)
(declare-fun s_ () Record_left_center_right)
(declare-fun c_ () Enum_left-to-center_left-to-right_center-to-left_center-to-right_right-to-left_right-to-center)
(declare-fun c!1 () Enum_left-to-center_left-to-right_center-to-left_center-to-right_right-to-left_right-to-center)
(declare-fun c__ () Enum_left-to-center_left-to-right_center-to-left_center-to-right_right-to-left_right-to-center)
(declare-fun s__ () Record_left_center_right)
(declare-fun c!2 () Enum_left-to-center_left-to-right_center-to-left_center-to-right_right-to-left_right-to-center)
(declare-fun c___ () Enum_left-to-center_left-to-right_center-to-left_center-to-right_right-to-left_right-to-center)
(declare-fun s___ () Record_left_center_right)
(declare-fun c!3 () Enum_left-to-center_left-to-right_center-to-left_center-to-right_right-to-left_right-to-center)
(declare-fun c____ () Enum_left-to-center_left-to-right_center-to-left_center-to-right_right-to-left_right-to-center)
(declare-fun s____ () Record_left_center_right)
(declare-fun c!4 () Enum_left-to-center_left-to-right_center-to-left_center-to-right_right-to-left_right-to-center)
(declare-fun c_____ () Enum_left-to-center_left-to-right_center-to-left_center-to-right_right-to-left_right-to-center)
(declare-fun s_____ () Record_left_center_right)
(declare-fun c!5 () Enum_left-to-center_left-to-right_center-to-left_center-to-right_right-to-left_right-to-center)
(declare-fun c______ () Enum_left-to-center_left-to-right_center-to-left_center-to-right_right-to-left_right-to-center)
(declare-fun s______ () Record_left_center_right)
(declare-fun c!6 () Enum_left-to-center_left-to-right_center-to-left_center-to-right_right-to-left_right-to-center)
(declare-fun c_______ () Enum_left-to-center_left-to-right_center-to-left_center-to-right_right-to-left_right-to-center)
(declare-fun s_______ () Record_left_center_right)
(assert
 (= s_tmp s))
(assert
 (= c_tmp c))
(assert
 (let ((?x19 (stack B empty)))
 (let ((?x18 (stack F ?x19)))
 (let ((?x20 (stack D ?x18)))
 (let ((?x21 (stack A ?x20)))
 (let ((?x22 (stack C ?x21)))
 (let ((?x75 (left s_tmp_)))
 (= ?x75 ?x22))))))))
(assert
 (let ((?x78 (center s_tmp__)))
 (= ?x78 empty)))
(assert
 (let ((?x23 (stack E empty)))
 (let ((?x81 (right s_tmp___)))
 (= ?x81 ?x23))))
(assert
 (= c_tmp____ c!0))
(assert
 (= s_ s_tmp___))
(assert
 (= c_ c_tmp____))
(assert
 (let ((?x108 (left s_tmp__)))
 (= (left s_tmp___) ?x108)))
(assert
 (let ((?x78 (center s_tmp__)))
 (= (center s_tmp___) ?x78)))
(assert
 (let ((?x112 (center s_tmp_)))
 (= ?x112 (center s_tmp))))
(assert
 (let ((?x115 (right s_tmp_)))
 (= ?x115 (right s_tmp))))
(assert
 (let ((?x75 (left s_tmp_)))
 (let ((?x108 (left s_tmp__)))
 (= ?x108 ?x75))))
(assert
 (let ((?x115 (right s_tmp_)))
 (let ((?x119 (right s_tmp__)))
 (= ?x119 ?x115))))
(assert
 (= c__ c!1))
(assert
 (let ((?x52 (left s_)))
 (let ((?x184 (left s__)))
 (let (($x226 (= ?x184 ?x52)))
 (let ((?x55 (right s_)))
 (let (($x196 ((_ is stack ) ?x55)))
 (let (($x199 (= c_ right-to-left)))
 (let (($x200 (and $x199 $x196)))
 (let ((?x57 (center s_)))
 (let (($x201 ((_ is stack ) ?x57)))
 (let (($x203 (and (= c_ center-to-right) $x201)))
 (let (($x205 (and (= c_ center-to-left) $x201)))
 (let (($x235 (ite $x205 (= ?x184 (stack (top ?x57) ?x52)) (ite $x203 $x226 (ite $x200 (= ?x184 (stack (top ?x55) ?x52)) $x226)))))
 (let (($x213 (= ?x184 (rest ?x52))))
 (let (($x206 ((_ is stack ) ?x52)))
 (let (($x207 (= c_ left-to-right)))
 (let (($x208 (and $x207 $x206)))
 (let (($x209 (= c_ left-to-center)))
 (let (($x210 (and $x209 $x206)))
 (ite $x210 $x213 (ite $x208 $x213 $x235)))))))))))))))))))))
(assert
 (let ((?x55 (right s_)))
 (let ((?x180 (right s__)))
 (let (($x222 (= ?x180 ?x55)))
 (let (($x219 (= ?x180 (rest ?x55))))
 (let (($x196 ((_ is stack ) ?x55)))
 (let (($x197 (= c_ right-to-center)))
 (let (($x198 (and $x197 $x196)))
 (let (($x199 (= c_ right-to-left)))
 (let (($x200 (and $x199 $x196)))
 (let ((?x57 (center s_)))
 (let (($x201 ((_ is stack ) ?x57)))
 (let (($x203 (and (= c_ center-to-right) $x201)))
 (let (($x232 (ite $x203 (= ?x180 (stack (top ?x57) ?x55)) (ite $x200 $x219 (ite $x198 $x219 $x222)))))
 (let (($x205 (and (= c_ center-to-left) $x201)))
 (let ((?x52 (left s_)))
 (let (($x206 ((_ is stack ) ?x52)))
 (let (($x207 (= c_ left-to-right)))
 (let (($x208 (and $x207 $x206)))
 (let (($x209 (= c_ left-to-center)))
 (let (($x210 (and $x209 $x206)))
 (ite $x210 (= ?x180 (stack (top ?x52) ?x55)) (ite $x208 $x222 (ite $x205 $x222 $x232))))))))))))))))))))))))
(assert
 (let ((?x57 (center s_)))
 (let ((?x186 (center s__)))
 (let (($x224 (= ?x186 ?x57)))
 (let ((?x55 (right s_)))
 (let (($x196 ((_ is stack ) ?x55)))
 (let (($x197 (= c_ right-to-center)))
 (let (($x198 (and $x197 $x196)))
 (let (($x199 (= c_ right-to-left)))
 (let (($x200 (and $x199 $x196)))
 (let (($x216 (= ?x186 (rest ?x57))))
 (let (($x201 ((_ is stack ) ?x57)))
 (let (($x203 (and (= c_ center-to-right) $x201)))
 (let (($x231 (ite $x203 $x216 (ite $x200 $x224 (ite $x198 (= ?x186 (stack (top ?x55) ?x57)) $x224)))))
 (let (($x205 (and (= c_ center-to-left) $x201)))
 (let ((?x52 (left s_)))
 (let (($x206 ((_ is stack ) ?x52)))
 (let (($x207 (= c_ left-to-right)))
 (let (($x208 (and $x207 $x206)))
 (let (($x209 (= c_ left-to-center)))
 (let (($x210 (and $x209 $x206)))
 (ite $x210 $x224 (ite $x208 (= ?x186 (stack (top ?x52) ?x57)) (ite $x205 $x216 $x231))))))))))))))))))))))))
(assert
 (= c___ c!2))
(assert
 (let ((?x184 (left s__)))
 (let ((?x122 (left s___)))
 (let (($x333 (= ?x122 ?x184)))
 (let ((?x180 (right s__)))
 (let ((?x300 (top ?x180)))
 (let ((?x301 (stack ?x300 ?x184)))
 (let (($x327 (= ?x122 ?x301)))
 (let (($x303 ((_ is stack ) ?x180)))
 (let (($x306 (= c__ right-to-left)))
 (let (($x307 (and $x306 $x303)))
 (let ((?x186 (center s__)))
 (let (($x308 ((_ is stack ) ?x186)))
 (let (($x309 (= c__ center-to-right)))
 (let (($x310 (and $x309 $x308)))
 (let ((?x296 (top ?x186)))
 (let ((?x297 (stack ?x296 ?x184)))
 (let (($x324 (= ?x122 ?x297)))
 (let (($x311 (= c__ center-to-left)))
 (let (($x312 (and $x311 $x308)))
 (let ((?x124 (rest ?x184)))
 (let (($x320 (= ?x122 ?x124)))
 (let (($x313 ((_ is stack ) ?x184)))
 (let (($x314 (= c__ left-to-right)))
 (let (($x315 (and $x314 $x313)))
 (let (($x316 (= c__ left-to-center)))
 (let (($x317 (and $x316 $x313)))
 (ite $x317 $x320 (ite $x315 $x320 (ite $x312 $x324 (ite $x310 $x333 (ite $x307 $x327 $x333))))))))))))))))))))))))))))))))
(assert
 (let ((?x180 (right s__)))
 (let ((?x125 (right s___)))
 (let (($x329 (= ?x125 ?x180)))
 (let ((?x299 (rest ?x180)))
 (let (($x326 (= ?x125 ?x299)))
 (let (($x303 ((_ is stack ) ?x180)))
 (let (($x304 (= c__ right-to-center)))
 (let (($x305 (and $x304 $x303)))
 (let (($x306 (= c__ right-to-left)))
 (let (($x307 (and $x306 $x303)))
 (let ((?x186 (center s__)))
 (let ((?x296 (top ?x186)))
 (let ((?x298 (stack ?x296 ?x180)))
 (let (($x325 (= ?x125 ?x298)))
 (let (($x308 ((_ is stack ) ?x186)))
 (let (($x309 (= c__ center-to-right)))
 (let (($x310 (and $x309 $x308)))
 (let (($x311 (= c__ center-to-left)))
 (let (($x312 (and $x311 $x308)))
 (let ((?x184 (left s__)))
 (let (($x313 ((_ is stack ) ?x184)))
 (let (($x314 (= c__ left-to-right)))
 (let (($x315 (and $x314 $x313)))
 (let (($x346 (ite $x315 $x329 (ite $x312 $x329 (ite $x310 $x325 (ite $x307 $x326 (ite $x305 $x326 $x329)))))))
 (let ((?x178 (top ?x184)))
 (let ((?x292 (stack ?x178 ?x180)))
 (let (($x321 (= ?x125 ?x292)))
 (let (($x316 (= c__ left-to-center)))
 (let (($x317 (and $x316 $x313)))
 (ite $x317 $x321 $x346)))))))))))))))))))))))))))))))
(assert
 (let ((?x186 (center s__)))
 (let ((?x293 (center s___)))
 (let (($x331 (= ?x293 ?x186)))
 (let ((?x180 (right s__)))
 (let ((?x300 (top ?x180)))
 (let ((?x302 (stack ?x300 ?x186)))
 (let (($x328 (= ?x293 ?x302)))
 (let (($x303 ((_ is stack ) ?x180)))
 (let (($x304 (= c__ right-to-center)))
 (let (($x305 (and $x304 $x303)))
 (let (($x306 (= c__ right-to-left)))
 (let (($x307 (and $x306 $x303)))
 (let ((?x295 (rest ?x186)))
 (let (($x323 (= ?x293 ?x295)))
 (let (($x308 ((_ is stack ) ?x186)))
 (let (($x309 (= c__ center-to-right)))
 (let (($x310 (and $x309 $x308)))
 (let (($x311 (= c__ center-to-left)))
 (let (($x312 (and $x311 $x308)))
 (let ((?x184 (left s__)))
 (let ((?x178 (top ?x184)))
 (let ((?x294 (stack ?x178 ?x186)))
 (let (($x322 (= ?x293 ?x294)))
 (let (($x313 ((_ is stack ) ?x184)))
 (let (($x314 (= c__ left-to-right)))
 (let (($x315 (and $x314 $x313)))
 (let (($x345 (ite $x315 $x322 (ite $x312 $x323 (ite $x310 $x323 (ite $x307 $x331 (ite $x305 $x328 $x331)))))))
 (let (($x316 (= c__ left-to-center)))
 (let (($x317 (and $x316 $x313)))
 (ite $x317 $x331 $x345)))))))))))))))))))))))))))))))
(assert
 (= c____ c!3))
(assert
 (let ((?x122 (left s___)))
 (let ((?x242 (left s____)))
 (let (($x471 (= ?x242 ?x122)))
 (let ((?x125 (right s___)))
 (let ((?x438 (top ?x125)))
 (let ((?x439 (stack ?x438 ?x122)))
 (let (($x465 (= ?x242 ?x439)))
 (let (($x441 ((_ is stack ) ?x125)))
 (let (($x444 (= c___ right-to-left)))
 (let (($x445 (and $x444 $x441)))
 (let ((?x293 (center s___)))
 (let (($x446 ((_ is stack ) ?x293)))
 (let (($x447 (= c___ center-to-right)))
 (let (($x448 (and $x447 $x446)))
 (let ((?x434 (top ?x293)))
 (let ((?x435 (stack ?x434 ?x122)))
 (let (($x462 (= ?x242 ?x435)))
 (let (($x449 (= c___ center-to-left)))
 (let (($x450 (and $x449 $x446)))
 (let ((?x272 (rest ?x122)))
 (let (($x458 (= ?x242 ?x272)))
 (let (($x451 ((_ is stack ) ?x122)))
 (let (($x452 (= c___ left-to-right)))
 (let (($x453 (and $x452 $x451)))
 (let (($x454 (= c___ left-to-center)))
 (let (($x455 (and $x454 $x451)))
 (ite $x455 $x458 (ite $x453 $x458 (ite $x450 $x462 (ite $x448 $x471 (ite $x445 $x465 $x471))))))))))))))))))))))))))))))))
(assert
 (let ((?x125 (right s___)))
 (let ((?x273 (right s____)))
 (let (($x467 (= ?x273 ?x125)))
 (let ((?x437 (rest ?x125)))
 (let (($x464 (= ?x273 ?x437)))
 (let (($x441 ((_ is stack ) ?x125)))
 (let (($x442 (= c___ right-to-center)))
 (let (($x443 (and $x442 $x441)))
 (let (($x444 (= c___ right-to-left)))
 (let (($x445 (and $x444 $x441)))
 (let ((?x293 (center s___)))
 (let ((?x434 (top ?x293)))
 (let ((?x436 (stack ?x434 ?x125)))
 (let (($x463 (= ?x273 ?x436)))
 (let (($x446 ((_ is stack ) ?x293)))
 (let (($x447 (= c___ center-to-right)))
 (let (($x448 (and $x447 $x446)))
 (let (($x449 (= c___ center-to-left)))
 (let (($x450 (and $x449 $x446)))
 (let ((?x122 (left s___)))
 (let (($x451 ((_ is stack ) ?x122)))
 (let (($x452 (= c___ left-to-right)))
 (let (($x453 (and $x452 $x451)))
 (let (($x484 (ite $x453 $x467 (ite $x450 $x467 (ite $x448 $x463 (ite $x445 $x464 (ite $x443 $x464 $x467)))))))
 (let ((?x291 (top ?x122)))
 (let ((?x430 (stack ?x291 ?x125)))
 (let (($x459 (= ?x273 ?x430)))
 (let (($x454 (= c___ left-to-center)))
 (let (($x455 (and $x454 $x451)))
 (ite $x455 $x459 $x484)))))))))))))))))))))))))))))))
(assert
 (let ((?x293 (center s___)))
 (let ((?x431 (center s____)))
 (let (($x469 (= ?x431 ?x293)))
 (let ((?x125 (right s___)))
 (let ((?x438 (top ?x125)))
 (let ((?x440 (stack ?x438 ?x293)))
 (let (($x466 (= ?x431 ?x440)))
 (let (($x441 ((_ is stack ) ?x125)))
 (let (($x442 (= c___ right-to-center)))
 (let (($x443 (and $x442 $x441)))
 (let (($x444 (= c___ right-to-left)))
 (let (($x445 (and $x444 $x441)))
 (let ((?x433 (rest ?x293)))
 (let (($x461 (= ?x431 ?x433)))
 (let (($x446 ((_ is stack ) ?x293)))
 (let (($x447 (= c___ center-to-right)))
 (let (($x448 (and $x447 $x446)))
 (let (($x449 (= c___ center-to-left)))
 (let (($x450 (and $x449 $x446)))
 (let ((?x122 (left s___)))
 (let ((?x291 (top ?x122)))
 (let ((?x432 (stack ?x291 ?x293)))
 (let (($x460 (= ?x431 ?x432)))
 (let (($x451 ((_ is stack ) ?x122)))
 (let (($x452 (= c___ left-to-right)))
 (let (($x453 (and $x452 $x451)))
 (let (($x483 (ite $x453 $x460 (ite $x450 $x461 (ite $x448 $x461 (ite $x445 $x469 (ite $x443 $x466 $x469)))))))
 (let (($x454 (= c___ left-to-center)))
 (let (($x455 (and $x454 $x451)))
 (ite $x455 $x469 $x483)))))))))))))))))))))))))))))))
(assert
 (= c_____ c!4))
(assert
 (let ((?x242 (left s____)))
 (let ((?x349 (left s_____)))
 (let (($x609 (= ?x349 ?x242)))
 (let ((?x273 (right s____)))
 (let ((?x576 (top ?x273)))
 (let ((?x577 (stack ?x576 ?x242)))
 (let (($x603 (= ?x349 ?x577)))
 (let (($x579 ((_ is stack ) ?x273)))
 (let (($x582 (= c____ right-to-left)))
 (let (($x583 (and $x582 $x579)))
 (let ((?x431 (center s____)))
 (let (($x584 ((_ is stack ) ?x431)))
 (let (($x585 (= c____ center-to-right)))
 (let (($x586 (and $x585 $x584)))
 (let ((?x572 (top ?x431)))
 (let ((?x573 (stack ?x572 ?x242)))
 (let (($x600 (= ?x349 ?x573)))
 (let (($x587 (= c____ center-to-left)))
 (let (($x588 (and $x587 $x584)))
 (let ((?x382 (rest ?x242)))
 (let (($x596 (= ?x349 ?x382)))
 (let (($x589 ((_ is stack ) ?x242)))
 (let (($x590 (= c____ left-to-right)))
 (let (($x591 (and $x590 $x589)))
 (let (($x592 (= c____ left-to-center)))
 (let (($x593 (and $x592 $x589)))
 (ite $x593 $x596 (ite $x591 $x596 (ite $x588 $x600 (ite $x586 $x609 (ite $x583 $x603 $x609))))))))))))))))))))))))))))))))
(assert
 (let ((?x273 (right s____)))
 (let ((?x383 (right s_____)))
 (let (($x605 (= ?x383 ?x273)))
 (let ((?x575 (rest ?x273)))
 (let (($x602 (= ?x383 ?x575)))
 (let (($x579 ((_ is stack ) ?x273)))
 (let (($x580 (= c____ right-to-center)))
 (let (($x581 (and $x580 $x579)))
 (let (($x582 (= c____ right-to-left)))
 (let (($x583 (and $x582 $x579)))
 (let ((?x431 (center s____)))
 (let ((?x572 (top ?x431)))
 (let ((?x574 (stack ?x572 ?x273)))
 (let (($x601 (= ?x383 ?x574)))
 (let (($x584 ((_ is stack ) ?x431)))
 (let (($x585 (= c____ center-to-right)))
 (let (($x586 (and $x585 $x584)))
 (let (($x587 (= c____ center-to-left)))
 (let (($x588 (and $x587 $x584)))
 (let ((?x242 (left s____)))
 (let (($x589 ((_ is stack ) ?x242)))
 (let (($x590 (= c____ left-to-right)))
 (let (($x591 (and $x590 $x589)))
 (let (($x622 (ite $x591 $x605 (ite $x588 $x605 (ite $x586 $x601 (ite $x583 $x602 (ite $x581 $x602 $x605)))))))
 (let ((?x429 (top ?x242)))
 (let ((?x568 (stack ?x429 ?x273)))
 (let (($x597 (= ?x383 ?x568)))
 (let (($x592 (= c____ left-to-center)))
 (let (($x593 (and $x592 $x589)))
 (ite $x593 $x597 $x622)))))))))))))))))))))))))))))))
(assert
 (let ((?x431 (center s____)))
 (let ((?x569 (center s_____)))
 (let (($x607 (= ?x569 ?x431)))
 (let ((?x273 (right s____)))
 (let ((?x576 (top ?x273)))
 (let ((?x578 (stack ?x576 ?x431)))
 (let (($x604 (= ?x569 ?x578)))
 (let (($x579 ((_ is stack ) ?x273)))
 (let (($x580 (= c____ right-to-center)))
 (let (($x581 (and $x580 $x579)))
 (let (($x582 (= c____ right-to-left)))
 (let (($x583 (and $x582 $x579)))
 (let ((?x571 (rest ?x431)))
 (let (($x599 (= ?x569 ?x571)))
 (let (($x584 ((_ is stack ) ?x431)))
 (let (($x585 (= c____ center-to-right)))
 (let (($x586 (and $x585 $x584)))
 (let (($x587 (= c____ center-to-left)))
 (let (($x588 (and $x587 $x584)))
 (let ((?x242 (left s____)))
 (let ((?x429 (top ?x242)))
 (let ((?x570 (stack ?x429 ?x431)))
 (let (($x598 (= ?x569 ?x570)))
 (let (($x589 ((_ is stack ) ?x242)))
 (let (($x590 (= c____ left-to-right)))
 (let (($x591 (and $x590 $x589)))
 (let (($x621 (ite $x591 $x598 (ite $x588 $x599 (ite $x586 $x599 (ite $x583 $x607 (ite $x581 $x604 $x607)))))))
 (let (($x592 (= c____ left-to-center)))
 (let (($x593 (and $x592 $x589)))
 (ite $x593 $x607 $x621)))))))))))))))))))))))))))))))
(assert
 (= c______ c!5))
(assert
 (let ((?x349 (left s_____)))
 (let ((?x487 (left s______)))
 (let (($x747 (= ?x487 ?x349)))
 (let ((?x383 (right s_____)))
 (let ((?x714 (top ?x383)))
 (let ((?x715 (stack ?x714 ?x349)))
 (let (($x741 (= ?x487 ?x715)))
 (let (($x717 ((_ is stack ) ?x383)))
 (let (($x720 (= c_____ right-to-left)))
 (let (($x721 (and $x720 $x717)))
 (let ((?x569 (center s_____)))
 (let (($x722 ((_ is stack ) ?x569)))
 (let (($x723 (= c_____ center-to-right)))
 (let (($x724 (and $x723 $x722)))
 (let ((?x710 (top ?x569)))
 (let ((?x711 (stack ?x710 ?x349)))
 (let (($x738 (= ?x487 ?x711)))
 (let (($x725 (= c_____ center-to-left)))
 (let (($x726 (and $x725 $x722)))
 (let ((?x520 (rest ?x349)))
 (let (($x734 (= ?x487 ?x520)))
 (let (($x727 ((_ is stack ) ?x349)))
 (let (($x728 (= c_____ left-to-right)))
 (let (($x729 (and $x728 $x727)))
 (let (($x730 (= c_____ left-to-center)))
 (let (($x731 (and $x730 $x727)))
 (ite $x731 $x734 (ite $x729 $x734 (ite $x726 $x738 (ite $x724 $x747 (ite $x721 $x741 $x747))))))))))))))))))))))))))))))))
(assert
 (let ((?x383 (right s_____)))
 (let ((?x521 (right s______)))
 (let (($x743 (= ?x521 ?x383)))
 (let ((?x713 (rest ?x383)))
 (let (($x740 (= ?x521 ?x713)))
 (let (($x717 ((_ is stack ) ?x383)))
 (let (($x718 (= c_____ right-to-center)))
 (let (($x719 (and $x718 $x717)))
 (let (($x720 (= c_____ right-to-left)))
 (let (($x721 (and $x720 $x717)))
 (let ((?x569 (center s_____)))
 (let ((?x710 (top ?x569)))
 (let ((?x712 (stack ?x710 ?x383)))
 (let (($x739 (= ?x521 ?x712)))
 (let (($x722 ((_ is stack ) ?x569)))
 (let (($x723 (= c_____ center-to-right)))
 (let (($x724 (and $x723 $x722)))
 (let (($x725 (= c_____ center-to-left)))
 (let (($x726 (and $x725 $x722)))
 (let ((?x349 (left s_____)))
 (let (($x727 ((_ is stack ) ?x349)))
 (let (($x728 (= c_____ left-to-right)))
 (let (($x729 (and $x728 $x727)))
 (let (($x760 (ite $x729 $x743 (ite $x726 $x743 (ite $x724 $x739 (ite $x721 $x740 (ite $x719 $x740 $x743)))))))
 (let ((?x567 (top ?x349)))
 (let ((?x706 (stack ?x567 ?x383)))
 (let (($x735 (= ?x521 ?x706)))
 (let (($x730 (= c_____ left-to-center)))
 (let (($x731 (and $x730 $x727)))
 (ite $x731 $x735 $x760)))))))))))))))))))))))))))))))
(assert
 (let ((?x569 (center s_____)))
 (let ((?x707 (center s______)))
 (let (($x745 (= ?x707 ?x569)))
 (let ((?x383 (right s_____)))
 (let ((?x714 (top ?x383)))
 (let ((?x716 (stack ?x714 ?x569)))
 (let (($x742 (= ?x707 ?x716)))
 (let (($x717 ((_ is stack ) ?x383)))
 (let (($x718 (= c_____ right-to-center)))
 (let (($x719 (and $x718 $x717)))
 (let (($x720 (= c_____ right-to-left)))
 (let (($x721 (and $x720 $x717)))
 (let ((?x709 (rest ?x569)))
 (let (($x737 (= ?x707 ?x709)))
 (let (($x722 ((_ is stack ) ?x569)))
 (let (($x723 (= c_____ center-to-right)))
 (let (($x724 (and $x723 $x722)))
 (let (($x725 (= c_____ center-to-left)))
 (let (($x726 (and $x725 $x722)))
 (let ((?x349 (left s_____)))
 (let ((?x567 (top ?x349)))
 (let ((?x708 (stack ?x567 ?x569)))
 (let (($x736 (= ?x707 ?x708)))
 (let (($x727 ((_ is stack ) ?x349)))
 (let (($x728 (= c_____ left-to-right)))
 (let (($x729 (and $x728 $x727)))
 (let (($x759 (ite $x729 $x736 (ite $x726 $x737 (ite $x724 $x737 (ite $x721 $x745 (ite $x719 $x742 $x745)))))))
 (let (($x730 (= c_____ left-to-center)))
 (let (($x731 (and $x730 $x727)))
 (ite $x731 $x745 $x759)))))))))))))))))))))))))))))))
(assert
 (= c_______ c!6))
(assert
 (let ((?x487 (left s______)))
 (let ((?x625 (left s_______)))
 (let (($x885 (= ?x625 ?x487)))
 (let ((?x521 (right s______)))
 (let ((?x852 (top ?x521)))
 (let ((?x853 (stack ?x852 ?x487)))
 (let (($x879 (= ?x625 ?x853)))
 (let (($x855 ((_ is stack ) ?x521)))
 (let (($x858 (= c______ right-to-left)))
 (let (($x859 (and $x858 $x855)))
 (let ((?x707 (center s______)))
 (let (($x860 ((_ is stack ) ?x707)))
 (let (($x861 (= c______ center-to-right)))
 (let (($x862 (and $x861 $x860)))
 (let ((?x848 (top ?x707)))
 (let ((?x849 (stack ?x848 ?x487)))
 (let (($x876 (= ?x625 ?x849)))
 (let (($x863 (= c______ center-to-left)))
 (let (($x864 (and $x863 $x860)))
 (let ((?x658 (rest ?x487)))
 (let (($x872 (= ?x625 ?x658)))
 (let (($x865 ((_ is stack ) ?x487)))
 (let (($x866 (= c______ left-to-right)))
 (let (($x867 (and $x866 $x865)))
 (let (($x868 (= c______ left-to-center)))
 (let (($x869 (and $x868 $x865)))
 (ite $x869 $x872 (ite $x867 $x872 (ite $x864 $x876 (ite $x862 $x885 (ite $x859 $x879 $x885))))))))))))))))))))))))))))))))
(assert
 (let ((?x521 (right s______)))
 (let ((?x659 (right s_______)))
 (let (($x881 (= ?x659 ?x521)))
 (let ((?x851 (rest ?x521)))
 (let (($x878 (= ?x659 ?x851)))
 (let (($x855 ((_ is stack ) ?x521)))
 (let (($x856 (= c______ right-to-center)))
 (let (($x857 (and $x856 $x855)))
 (let (($x858 (= c______ right-to-left)))
 (let (($x859 (and $x858 $x855)))
 (let ((?x707 (center s______)))
 (let ((?x848 (top ?x707)))
 (let ((?x850 (stack ?x848 ?x521)))
 (let (($x877 (= ?x659 ?x850)))
 (let (($x860 ((_ is stack ) ?x707)))
 (let (($x861 (= c______ center-to-right)))
 (let (($x862 (and $x861 $x860)))
 (let (($x863 (= c______ center-to-left)))
 (let (($x864 (and $x863 $x860)))
 (let ((?x487 (left s______)))
 (let (($x865 ((_ is stack ) ?x487)))
 (let (($x866 (= c______ left-to-right)))
 (let (($x867 (and $x866 $x865)))
 (let (($x898 (ite $x867 $x881 (ite $x864 $x881 (ite $x862 $x877 (ite $x859 $x878 (ite $x857 $x878 $x881)))))))
 (let ((?x705 (top ?x487)))
 (let ((?x844 (stack ?x705 ?x521)))
 (let (($x873 (= ?x659 ?x844)))
 (let (($x868 (= c______ left-to-center)))
 (let (($x869 (and $x868 $x865)))
 (ite $x869 $x873 $x898)))))))))))))))))))))))))))))))
(assert
 (let ((?x707 (center s______)))
 (let ((?x845 (center s_______)))
 (let (($x883 (= ?x845 ?x707)))
 (let ((?x521 (right s______)))
 (let ((?x852 (top ?x521)))
 (let ((?x854 (stack ?x852 ?x707)))
 (let (($x880 (= ?x845 ?x854)))
 (let (($x855 ((_ is stack ) ?x521)))
 (let (($x856 (= c______ right-to-center)))
 (let (($x857 (and $x856 $x855)))
 (let (($x858 (= c______ right-to-left)))
 (let (($x859 (and $x858 $x855)))
 (let ((?x847 (rest ?x707)))
 (let (($x875 (= ?x845 ?x847)))
 (let (($x860 ((_ is stack ) ?x707)))
 (let (($x861 (= c______ center-to-right)))
 (let (($x862 (and $x861 $x860)))
 (let (($x863 (= c______ center-to-left)))
 (let (($x864 (and $x863 $x860)))
 (let ((?x487 (left s______)))
 (let ((?x705 (top ?x487)))
 (let ((?x846 (stack ?x705 ?x707)))
 (let (($x874 (= ?x845 ?x846)))
 (let (($x865 ((_ is stack ) ?x487)))
 (let (($x866 (= c______ left-to-right)))
 (let (($x867 (and $x866 $x865)))
 (let (($x897 (ite $x867 $x874 (ite $x864 $x875 (ite $x862 $x875 (ite $x859 $x883 (ite $x857 $x880 $x883)))))))
 (let (($x868 (= c______ left-to-center)))
 (let (($x869 (and $x868 $x865)))
 (ite $x869 $x883 $x897)))))))))))))))))))))))))))))))
(assert
 (let ((?x28 (stack F (stack E (stack D (stack B empty))))))
 (let ((?x659 (right s_______)))
 (let (($x901 (= ?x659 ?x28)))
 (let ((?x25 (stack A empty)))
 (let ((?x845 (center s_______)))
 (let (($x932 (= ?x845 ?x25)))
 (let ((?x24 (stack C empty)))
 (let ((?x625 (left s_______)))
 (let (($x933 (= ?x625 ?x24)))
 (let (($x935 (not (and $x933 $x932 $x901))))
 (not $x935))))))))))))
(check-sat)
(exit)
